(set-info :status unknown)
(declare-fun %Y () (_ BitVec 11))
(declare-fun C1 () (_ BitVec 42))
(declare-fun C2 () (_ BitVec 11))
(declare-fun %X () (_ BitVec 42))
(assert
 (let ((?x4023 (ite (and (distinct ((_ extract 2 2) C1) (_ bv0 1)) true) (_ bv2 11) (ite (and (distinct ((_ extract 1 1) C1) (_ bv0 1)) true) (_ bv1 11) (_ bv0 11)))))
 (let ((?x4914 (ite (and (distinct ((_ extract 5 5) C1) (_ bv0 1)) true) (_ bv5 11) (ite (and (distinct ((_ extract 4 4) C1) (_ bv0 1)) true) (_ bv4 11) (_ bv3 11)))))
 (let ((?x5045 (ite (and (distinct ((_ extract 8 8) C1) (_ bv0 1)) true) (_ bv8 11) (ite (and (distinct ((_ extract 7 7) C1) (_ bv0 1)) true) (_ bv7 11) (_ bv6 11)))))
 (let ((?x5412 (ite (and (distinct ((_ extract 10 9) C1) (_ bv0 2)) true) (ite (and (distinct ((_ extract 10 10) C1) (_ bv0 1)) true) (_ bv10 11) (_ bv9 11)) ?x5045)))
 (let ((?x4928 (ite (and (distinct ((_ extract 10 6) C1) (_ bv0 5)) true) ?x5412 (ite (and (distinct ((_ extract 5 3) C1) (_ bv0 3)) true) ?x4914 ?x4023))))
 (let ((?x4154 (ite (and (distinct ((_ extract 13 13) C1) (_ bv0 1)) true) (_ bv13 11) (ite (and (distinct ((_ extract 12 12) C1) (_ bv0 1)) true) (_ bv12 11) (_ bv11 11)))))
 (let ((?x5586 (ite (and (distinct ((_ extract 15 14) C1) (_ bv0 2)) true) (ite (and (distinct ((_ extract 15 15) C1) (_ bv0 1)) true) (_ bv15 11) (_ bv14 11)) ?x4154)))
 (let ((?x4074 (ite (and (distinct ((_ extract 18 18) C1) (_ bv0 1)) true) (_ bv18 11) (ite (and (distinct ((_ extract 17 17) C1) (_ bv0 1)) true) (_ bv17 11) (_ bv16 11)))))
 (let ((?x4066 (ite (and (distinct ((_ extract 20 19) C1) (_ bv0 2)) true) (ite (and (distinct ((_ extract 20 20) C1) (_ bv0 1)) true) (_ bv20 11) (_ bv19 11)) ?x4074)))
 (let ((?x1918 (ite (and (distinct ((_ extract 20 11) C1) (_ bv0 10)) true) (ite (and (distinct ((_ extract 20 16) C1) (_ bv0 5)) true) ?x4066 ?x5586) ?x4928)))
 (let ((?x2786 (ite (and (distinct ((_ extract 23 23) C1) (_ bv0 1)) true) (_ bv23 11) (ite (and (distinct ((_ extract 22 22) C1) (_ bv0 1)) true) (_ bv22 11) (_ bv21 11)))))
 (let ((?x2448 (ite (and (distinct ((_ extract 26 26) C1) (_ bv0 1)) true) (_ bv26 11) (ite (and (distinct ((_ extract 25 25) C1) (_ bv0 1)) true) (_ bv25 11) (_ bv24 11)))))
 (let ((?x1737 (ite (and (distinct ((_ extract 29 29) C1) (_ bv0 1)) true) (_ bv29 11) (ite (and (distinct ((_ extract 28 28) C1) (_ bv0 1)) true) (_ bv28 11) (_ bv27 11)))))
 (let ((?x1312 (ite (and (distinct ((_ extract 31 30) C1) (_ bv0 2)) true) (ite (and (distinct ((_ extract 31 31) C1) (_ bv0 1)) true) (_ bv31 11) (_ bv30 11)) ?x1737)))
 (let ((?x3209 (ite (and (distinct ((_ extract 31 27) C1) (_ bv0 5)) true) ?x1312 (ite (and (distinct ((_ extract 26 24) C1) (_ bv0 3)) true) ?x2448 ?x2786))))
 (let ((?x2065 (ite (and (distinct ((_ extract 34 34) C1) (_ bv0 1)) true) (_ bv34 11) (ite (and (distinct ((_ extract 33 33) C1) (_ bv0 1)) true) (_ bv33 11) (_ bv32 11)))))
 (let ((?x2865 (ite (and (distinct ((_ extract 36 35) C1) (_ bv0 2)) true) (ite (and (distinct ((_ extract 36 36) C1) (_ bv0 1)) true) (_ bv36 11) (_ bv35 11)) ?x2065)))
 (let ((?x5080 (ite (and (distinct ((_ extract 39 39) C1) (_ bv0 1)) true) (_ bv39 11) (ite (and (distinct ((_ extract 38 38) C1) (_ bv0 1)) true) (_ bv38 11) (_ bv37 11)))))
 (let ((?x2674 (ite (and (distinct ((_ extract 41 40) C1) (_ bv0 2)) true) (ite (and (distinct ((_ extract 41 41) C1) (_ bv0 1)) true) (_ bv41 11) (_ bv40 11)) ?x5080)))
 (let ((?x3015 (ite (and (distinct ((_ extract 41 32) C1) (_ bv0 10)) true) (ite (and (distinct ((_ extract 41 37) C1) (_ bv0 5)) true) ?x2674 ?x2865) ?x3209)))
 (let ((?x5549 (ite (and (distinct ((_ extract 2 2) C2) (_ bv0 1)) true) (_ bv2 11) (ite (and (distinct ((_ extract 1 1) C2) (_ bv0 1)) true) (_ bv1 11) (_ bv0 11)))))
 (let ((?x1370 (ite (and (distinct ((_ extract 5 5) C2) (_ bv0 1)) true) (_ bv5 11) (ite (and (distinct ((_ extract 4 4) C2) (_ bv0 1)) true) (_ bv4 11) (_ bv3 11)))))
 (let ((?x4378 (ite (and (distinct ((_ extract 8 8) C2) (_ bv0 1)) true) (_ bv8 11) (ite (and (distinct ((_ extract 7 7) C2) (_ bv0 1)) true) (_ bv7 11) (_ bv6 11)))))
 (let ((?x2379 (ite (and (distinct ((_ extract 10 9) C2) (_ bv0 2)) true) (ite (and (distinct ((_ extract 10 10) C2) (_ bv0 1)) true) (_ bv10 11) (_ bv9 11)) ?x4378)))
 (let ((?x5623 (ite (and (distinct ((_ extract 10 6) C2) (_ bv0 5)) true) ?x2379 (ite (and (distinct ((_ extract 5 3) C2) (_ bv0 3)) true) ?x1370 ?x5549))))
 (let ((?x4067 (bvsub ?x5623 (ite (and (distinct ((_ extract 41 21) C1) (_ bv0 21)) true) ?x3015 ?x1918))))
 (let ((?x2275 (bvor %Y C2)))
 (let (($x5320 (and (distinct (ite (= (ite (= (bvand %X C1) (_ bv0 42)) (_ bv1 1) (_ bv0 1)) (_ bv1 1)) %Y ?x2275) (bvor (bvshl ((_ extract 10 0) (bvand %X C1)) ?x4067) %Y)) true)))
 (let ((?x3891 (ite (and (distinct ((_ extract 2 2) C1) (_ bv0 1)) true) (_ bv2 32) (ite (and (distinct ((_ extract 1 1) C1) (_ bv0 1)) true) (_ bv1 32) (_ bv0 32)))))
 (let ((?x2848 (ite (and (distinct ((_ extract 5 5) C1) (_ bv0 1)) true) (_ bv5 32) (ite (and (distinct ((_ extract 4 4) C1) (_ bv0 1)) true) (_ bv4 32) (_ bv3 32)))))
 (let ((?x2037 (ite (and (distinct ((_ extract 8 8) C1) (_ bv0 1)) true) (_ bv8 32) (ite (and (distinct ((_ extract 7 7) C1) (_ bv0 1)) true) (_ bv7 32) (_ bv6 32)))))
 (let ((?x5327 (ite (and (distinct ((_ extract 10 9) C1) (_ bv0 2)) true) (ite (and (distinct ((_ extract 10 10) C1) (_ bv0 1)) true) (_ bv10 32) (_ bv9 32)) ?x2037)))
 (let ((?x3904 (ite (and (distinct ((_ extract 10 6) C1) (_ bv0 5)) true) ?x5327 (ite (and (distinct ((_ extract 5 3) C1) (_ bv0 3)) true) ?x2848 ?x3891))))
 (let ((?x4089 (ite (and (distinct ((_ extract 13 13) C1) (_ bv0 1)) true) (_ bv13 32) (ite (and (distinct ((_ extract 12 12) C1) (_ bv0 1)) true) (_ bv12 32) (_ bv11 32)))))
 (let ((?x5558 (ite (and (distinct ((_ extract 15 14) C1) (_ bv0 2)) true) (ite (and (distinct ((_ extract 15 15) C1) (_ bv0 1)) true) (_ bv15 32) (_ bv14 32)) ?x4089)))
 (let ((?x3954 (ite (and (distinct ((_ extract 18 18) C1) (_ bv0 1)) true) (_ bv18 32) (ite (and (distinct ((_ extract 17 17) C1) (_ bv0 1)) true) (_ bv17 32) (_ bv16 32)))))
 (let ((?x3814 (ite (and (distinct ((_ extract 20 19) C1) (_ bv0 2)) true) (ite (and (distinct ((_ extract 20 20) C1) (_ bv0 1)) true) (_ bv20 32) (_ bv19 32)) ?x3954)))
 (let ((?x1294 (ite (and (distinct ((_ extract 20 11) C1) (_ bv0 10)) true) (ite (and (distinct ((_ extract 20 16) C1) (_ bv0 5)) true) ?x3814 ?x5558) ?x3904)))
 (let ((?x2728 (ite (and (distinct ((_ extract 23 23) C1) (_ bv0 1)) true) (_ bv23 32) (ite (and (distinct ((_ extract 22 22) C1) (_ bv0 1)) true) (_ bv22 32) (_ bv21 32)))))
 (let ((?x1969 (ite (and (distinct ((_ extract 26 26) C1) (_ bv0 1)) true) (_ bv26 32) (ite (and (distinct ((_ extract 25 25) C1) (_ bv0 1)) true) (_ bv25 32) (_ bv24 32)))))
 (let ((?x1420 (ite (and (distinct ((_ extract 29 29) C1) (_ bv0 1)) true) (_ bv29 32) (ite (and (distinct ((_ extract 28 28) C1) (_ bv0 1)) true) (_ bv28 32) (_ bv27 32)))))
 (let ((?x1967 (ite (and (distinct ((_ extract 31 30) C1) (_ bv0 2)) true) (ite (and (distinct ((_ extract 31 31) C1) (_ bv0 1)) true) (_ bv31 32) (_ bv30 32)) ?x1420)))
 (let ((?x3110 (ite (and (distinct ((_ extract 31 27) C1) (_ bv0 5)) true) ?x1967 (ite (and (distinct ((_ extract 26 24) C1) (_ bv0 3)) true) ?x1969 ?x2728))))
 (let ((?x5053 (ite (and (distinct ((_ extract 34 34) C1) (_ bv0 1)) true) (_ bv34 32) (ite (and (distinct ((_ extract 33 33) C1) (_ bv0 1)) true) (_ bv33 32) (_ bv32 32)))))
 (let ((?x5019 (ite (and (distinct ((_ extract 36 35) C1) (_ bv0 2)) true) (ite (and (distinct ((_ extract 36 36) C1) (_ bv0 1)) true) (_ bv36 32) (_ bv35 32)) ?x5053)))
 (let ((?x3135 (ite (and (distinct ((_ extract 39 39) C1) (_ bv0 1)) true) (_ bv39 32) (ite (and (distinct ((_ extract 38 38) C1) (_ bv0 1)) true) (_ bv38 32) (_ bv37 32)))))
 (let ((?x2547 (ite (and (distinct ((_ extract 41 40) C1) (_ bv0 2)) true) (ite (and (distinct ((_ extract 41 41) C1) (_ bv0 1)) true) (_ bv41 32) (_ bv40 32)) ?x3135)))
 (let ((?x2920 (ite (and (distinct ((_ extract 41 32) C1) (_ bv0 10)) true) (ite (and (distinct ((_ extract 41 37) C1) (_ bv0 5)) true) ?x2547 ?x5019) ?x3110)))
 (let ((?x4959 (ite (and (distinct ((_ extract 2 2) C2) (_ bv0 1)) true) (_ bv2 32) (ite (and (distinct ((_ extract 1 1) C2) (_ bv0 1)) true) (_ bv1 32) (_ bv0 32)))))
 (let ((?x1311 (ite (and (distinct ((_ extract 5 5) C2) (_ bv0 1)) true) (_ bv5 32) (ite (and (distinct ((_ extract 4 4) C2) (_ bv0 1)) true) (_ bv4 32) (_ bv3 32)))))
 (let ((?x5377 (ite (and (distinct ((_ extract 8 8) C2) (_ bv0 1)) true) (_ bv8 32) (ite (and (distinct ((_ extract 7 7) C2) (_ bv0 1)) true) (_ bv7 32) (_ bv6 32)))))
 (let ((?x2588 (ite (and (distinct ((_ extract 10 9) C2) (_ bv0 2)) true) (ite (and (distinct ((_ extract 10 10) C2) (_ bv0 1)) true) (_ bv10 32) (_ bv9 32)) ?x5377)))
 (let ((?x3323 (ite (and (distinct ((_ extract 10 6) C2) (_ bv0 5)) true) ?x2588 (ite (and (distinct ((_ extract 5 3) C2) (_ bv0 3)) true) ?x1311 ?x4959))))
 (and (and (and (distinct C1 (_ bv0 42)) true) (= (bvand C1 (bvsub C1 (_ bv1 42))) (_ bv0 42))) (and (and (distinct C2 (_ bv0 11)) true) (= (bvand C2 (bvsub C2 (_ bv1 11))) (_ bv0 11))) (bvsge ?x3323 (ite (and (distinct ((_ extract 41 21) C1) (_ bv0 21)) true) ?x2920 ?x1294)) $x5320)))))))))))))))))))))))))))))))))))))))))))))))))))))))
(check-sat)
